r_100_25_9
100
 78   0  68   0   0   0   0  89   0   0   0   0   0   0  71   0   0   0  35   0  26   0   0  95   0  35   1   0   0  26   0   0   0   0  11   0   0   8   0   0   0  86  72   0  38   0   0  68   0   0   5   0  33  72  10   0   0   0   0  58  44   0   0   9  16   0   0   0   0   0  49   0   0   0   0  52   0  26   0  74  23   0  20   0   0  61  12   0   0   0   0   0  95   0  63   0   0  28  54   0 
  0  70  89   0   0   0   0   0   0   0   0  26   0   0   0   0   0   0   0   0  51   0  46  59   0   0  33   0   0  52   0   0   0   0   0   0   0   0   0   0  87   0   0   0   0   0   0   0   0   0   0  94   0   0   0  37   0   0  36  56   0   0  76   0  57   0   0   0   0   0   0   0  29  43   0   0   0   0   0   0   0   0  98   0   0   0  69   0   0  91   0   0   0   8  70   0  31   0   0 
  0   0   0  19   0  93   0   0   0   0   0  85   0   0   0   0   0   0   0   0  81   0   0   0  26   0   0  15   0   0  25   0   0   0   0  29   0   0  73   0  23   0   0  22   0  80  68   0  38   0   0   0   0   0  15   0   0   0   0  66  80  93  98   0   0   0  90   5   0   0  13   0   0   0   0   0   0   0   0   0   0   0   0   0   0  28  22   0  13   0  67   0  22   0   0   0   0  63 
 35   0   0   1   0   0   0  24   0   0  76  13  32   0  13   0   0   0  80   0   0   0  22   0   0   0  43   0  40  80   0   0   0   0  11   0   0  61   0   0  22  43   0   0   0   0  15   0   0  43   0   0   0   0   0   0   0   0   0  15   0   0  43   0  58  64   0   0   0   0   0   0   0   0  12   0   0  44  62   0   0   0   0   0   0   0   0   0  39  37  44   0   0   1   3   0   0 
  0   0   0   0   0   0   0   0   0   0   0   0  13   0   0   0   0   0  13  52   0   0   0   0   0   0   0   0   0   0  45  14   0   0   0  95   0   0   0  41  59   0   0   0   0  88   0   0   0   0   0   0   0   0   0   0  36   0   0   0   0  97   0   0   0   0   0   0   0   0   0   1   0   0  67   0  43   0   0   0   0   0  95   0  47   0   0   0   1   0   0   0   0   0   0   0 
 42   0   0  87   0   0   0  74   0   0   0   0   0  54   0   0   0   0  27   0   0  61   0   0  70  63   0  45   2   0   0   0   0   0   0   0   0   0   0  89   2   0  68   0  88   0  25  80   0  15   0  23   0  78   0   6  68   0  19   0   0   0   0   0   0   0   0   0   0   0   0  51   0   0   0   0   0  51   0  48   0  85  20   0   0   0  39  44   0   0  67   0   0   0   0 
  0   0   0   0   0   0   0   0   0   0   0   0  53  15   0   2   0   0   0  14   0  82   0   0   0   6   0   0   0   0   0   0   0   0  69   0   0   0  32   0   2   0   0   0   0   0   0   0   0   0 100   0   0   0  52   0   0   0   0   0   0   0  40   0   0   0   0  90   0   0   0  30   5   0   0  84  34   0   0   0   0  62   0   0   0   0   0   0  94   0   0   0   0  31 
 50  65  53   0   0  32   0   0   0   0   0   0   0   0   0  12  96   0   0   0   0   0  86   0  41   0  99   0   0   0   0   0   0   0   0   0  81   0   0   0   0   0  32   0   0   0   0  61   0  37  42  69  15   0   0   0   0   0   0   0   0   0   0   0   0  92  62   0   0   0   0   0   0   0   0   0   0   0   0   0   0  40  48   0   0 100   0  50   0   0   0   0  18 
  0   0   0   0   0   0   0  73   0   0   0  40   0   0   0  54  68   0   0  38   0  95   0   0   0   0  10   0   0   0   0   0  89   0  11   0   0   0   1   2   0   0   0   0   0  87   0   3   0   0   0  37  59   0   0   0   0   0   0   0   0  24   0   0   0   0   0   0   0   0   0   0  46   0   0   0   0   0   0   0   0   0   0   0   0  76   0   0   0   0   0   0 
 90   9  14  26  94   0   0  94   0   0   0  15  81  96   0   0   0   0   0   0   0   0   0   0   0   0  74  61   0   0   0   0   0   0   0   0   0  21   0   0   0   0   0   0  18   0   0   0  28   0  41   0   0   0   0   4   0   0  71   0  85  49   0  40   0   0   0   0  32   0   0  40   0   0   0   0   0  38   0   0   0 100   0   0   0   0  63   9   0  78   0 
  0   0   0   0   0   0   0   0  31   0   0   0   0   0   0   0   0   0  95   8   0  77   0  58   0   0   0   0   0   0  75   0   0   0  62   0  87   0   0   0  76   0  86   0   0   0   0   0   0   0   0  43   0   1  16   0   0   0   0   0  14   0  29   0   0   3   0   0   0   1   0   0   0   0   0   0  94   0   0   0   0   0   0   0  18   0   0  32   0   0 
 29   0   0   0  35   0   0  90   0   0   0   0   0   0  78   0   0   0   0   0   0   0   0   0  14   0   0   0   0   0   2   0  18   0   0   0   0   0  51   0  71   0   0   0   0   0   0   0   0  44  54   0  15   0   0   0   0   0   0   0  24   0   0   0   0   0   0   0   0   0   0  18   0   0   0   0   0   0   0  11   0   0   0   0   0   0   0  92 100 
  0   0   0   0   0   0  97   0   0   0   0   0   0   0  29   0   0   0   0  12   0  42   0  93  44  96   0  28   0   0   0   0  68   0   0   0   0   0   0   0   0  77  29   0   0   8   0   0   0   0   0   0  99  75   4  79  59   0 100   0  28   0  75   0   0  83   3   0   0  54   0   0   0   0  86   0   0   0   0  39   0  80   0   0   0   0   0   0 
 62   0  44   0  75  50  66  47   0   0   0   0   0   0   0   0   0   0   0   0   0   0  56   0   0  97   0   0   0   0   0   0   0  79  45   0   0   0  64   0 100   0   0   0   0   0   0   0  70  24   0   0   0   0   0   0   0  95   0   0   0   0   1   0  33   0   0   0   0   0   0   0   0   0  86   0   0   0   0   0   0  27   0  85   0   0   0 
  0  72   0   0   0   0   0  38   0   0  27   0   0  30   0   0  38  85   0   0   0   0   0   0   0   0   0  45   0   0  41   0   0   0   0  16   0   0   0  29   0   0   0   0   0   0  91   0  56   0   0   0   0   0   0  81   0   0   0   0   3   0   0   0   0   0   0   0  70   0   0   0  88  98   0   0   0   0   0   0   0   0   0   0   0   0 
  0   0   0   0   0   0   0  77   0   0   0  23   0   0   0   0   0   0  66   0   0   0   0   0   0   0   0   0   0   0   0  89   0  67   0   0  89   0   0   0   0   0   0   0   0   0  88   0   0   0   0   0   0   0   0  25   0   0   0   0  47   0   0   0   0   0  24   0   0   0   0   0   0   0   0   0  88   0   0  27   0   0   0   0   0 
  0   0   0   0   0   0   0   0   0   0   0   0  40  38  84   0   0   0   0   0   0  57  12   0   0   0  51   0   0   0   0   0  63   0   0   0   0  13   0  77   0  84   0   0   0   0   0   0  17   0   0   0   0   0  64   0   0   0   0   0   0   0   0   0   0   0   0   0   0   9   0   0   0  64   0   0   0   0   0   0   0   0   0  10 
 82   0  17  62   0   0   0   0   0  12   0   0   0   0   0  80   0   0   0   0   0   0   0   0   0   0  74   0  90   0  68   0   0   0   0  33  55   0   0   0   0   0   0   0   0   0   0   0   0   0   2  16  49  56   0  14  17   0   0   0  51  54   0   0   0  48   0   0   0   0   0   0   0  54   0   0   0   0   2   0   0   0   0 
  0   0   0  58   0   0  28  67  21   0  40   0  89   0   0   0   0   0   0   0   4   0   0   0   0   0   0  97   0   0   0   0   0  82   0   0  42   0   0   0  87   0   0   0   0  36   0   0   0   0   0   0   0  75   0   0   0   0   0   0  73   0   0   0   0   0   0   0   0  36   0   0   0   0   0  97   0  25   0   0   0   0 
  0   0   0   0   0   0   0   0   0   0   0   0   0   0  53   0   0   0   0   0   0   0   0   0   0   0  53   0   0   0   0   0   0   0  59   0  71  96   0   0  61   0   0   0   0   0   0  63   0   0  79  55   0   0   0   0  86   0  17  78   0   0   0   0   0   0   0   0  46  14   0   0   0   0  25   0  45   0   0   0   0 
  0  72   0   0   0   0   0  85  26   0  32   0   0  51   0   0   0   0   0  18   0  86   0   0   0   0   0   0   0   0   0   0   0   0   0   0   0   0  87  99   0  92   0   0  70   0   0  78  36   0  44   0   0   0   0   0  43   0  16   0   0  34   0   0   0   0  39   0   0   0   0  25  41   0   0  19   0  78  97   0 
  0  62   0   3   0   9   0   7   0  22  88   0   0   0   0   0  36   0  86   0   3   0   0   0   0   0   0   0   0   0   0   0  38  47  70  65  45   6  82  24   0  87   0   0   0   0  93   0   0   0   0   0   0   0   0  65   0   0   0   0   0   0   0   0   0   0   0   0   0  34  41   0   0   0   0   0   0   0   0 
  0   0   0   0  84   0   0   0  72   0   0  12   0   0  55   0   0   0   0   0   0   0   0  64  43   0   0   0   0   0   0   0   0 100   0   0   0  81   0   0  80  28   0   0   5   0   0   0   0  80  41  96  34   0   0   0   0  83   0  33   0   0  66   0  65   0   0   0   0   0   0   0   0   0   0   0  79  12 
  0   0   0   0  37   0   0   0  36   0   1   0   0   0  57   0   0   0   0   0   0   1  50   0   0   0   0   0   0  66  94   5   0   0   0   0  86   0   0   0  45   0   0  57   0   0  97  79  60   0   0  31  35   0   0   0   0   0  37   0   0  28   0   0   0   0   0   8   0   0   0   0   0   0  30   0   0 
  0   3   0   0   0   0   0   0  86  54   0   0   0   0   0  64   0   0  26   0  56   0   0   0   0   0   0  27   0   0   0   0   0   0   0   0   0   0   0  22   0   0   0   0   0   0   0   0   0   0   0  65  15  92   0   0   0   0   0  13   0  84   0   0   0   0  82   0   0   0   0  77   0  33   0  19 
 72   0   0   0  94   0  59   0   0   0   0   0   0   0   0   0   0   0   0   0   0  10  75   0  20   0   0   0   0   0   0   0   0  37   0   0   0  90   0  96  47  78  96   0   0   0   0   0   0  75  16   0   0  36   0  31   0  70   0   4   0   0   0   0   0   0   0   0   0  57   0   0   0  88   0 
  0   0   0   0   0   0   0   0   0   0   0   0   0   0   0   0   0   0   0  68  32   0   0   0   0   0   0   0   0   0   0   0   0   0   0   0   0   0   0   0  29   0   0   0   0  69   0  18   0   0   0   0   0   0   0  65   0   0   0   0   0   0  76   0   0   0  17  29  33   0   0   0   0   0 
  0   0   4  63   0  21   0   0   0   0  70  34   0   0   0   0  89   0   0   0   0  60   0   0  56   0   0   0   0  96   0  51   0   0   0   0   0   0   0  77   0   0   0   7   0   0   0   0   0   0   0  98   0  12   0  30   0   0  55   0   0   0   0   0   0 100  41   0   0   0   0   0   0 
  0   0   0  73   0   0   0   0   0   0   0   0   0  73  13   9   0  52  23   0   0   0  84   0   0  98   0   0   0   0   0   0   0   0  75   0   0  28   0  52   0   0   0  61  19   0   0   0   0   0  66   0   0  38   0   0   0  93   6   0   0   0   0   0   1  37   0   0   0   0  23   0 
  0   0  85  69  33   0   0   0  66   1   0   0   0   0   0   0   0  45   0  56   0   0 100   0   0   0   0   0   0   0   0   0   0  23  13   0   0   0   0   0  49   0  16   0   0   0  46   0   0   0   0   0   0   0   0   0   0   0   0   0   0   0   0   0   0   0  30   1   0   0   0 
  0  52   0   3  26   0   0  86  99   0  82   0   0   0   0   0   0  81  60  79   0   0   0   0   0   0   0   0   0  48   0  18   0  37   0   0   0   0   0   0   0   0   0   0   0   0  92  93   0   0   0   0  94   0   0   0  12  87   0   0   0  41   0   0   0  46   0   0   0   0 
  0   0   0   0   0   0 100   0   0  43   0   0   0   0   0  57  22   0   6   0   0   0   0  37   0   0   0   0   0  17   0   0   0   0  57   0   0   0   0   0   0   0  18   0   0   0  47   0  28   0   0   0  72   0   0  31   0   0   0   0   0  16   0  19   0  43   0   4  43 
  0  84   0   0   0   7   5   0   0   0   0   0   0   0   0  81   0   0   0   0   0   0   0   0   0  41   0   0   0   0   0   0   0   0   0   0   0   0   0   0   0   0   0   0   0   0   0  48   0   0   0  13   0   0   0   0   0   0   0  53   0   0  93   0   0   0   0  94 
 81  81   0   0   0  77   0   0   0  93   0  38   0   0   0   0   0   0   0   0   2   0   0   0   5   0   0   0   0  63   0   0   0   0   0   0   0   0   0   0   0  21  10   0   0   0   0  55  60   0   0   0   0  69  35   0  33  55  83  21  76   0   0  36   0   0   0 
  0  41   0   0  57   0  10   0   0   0  59   0   0   0   0   0   0   0  13   0   1   0   0  55  97   0   0  69   0   0  48  98   0   0   0   2  25  50  17  23   0  46   0   0   0   0   0   0   0   0   0   0   0   0   0   0   0   0   0  59  65   0   0  65   0   0 
  0   0   0   0   0   0  12   0   0  24   0   0  76   0   0   0   0   0  25   0 100   0   0   0   0  80  33   0   0   0   0  80  26   0   0   0   0   0   0   0   0  80   0   0   0   0   0  55   0   0   0   0   0  43  44  80   0   0   0   0   0   0   0  27   0 
  0   0   0   0   0   0   0  26   0   0   0   0  60  63  26  87   0   0   0   0   0   0   0   0   0   0   0   0  36   0   0   0   0  41   0   0   0   0   0   0   0  63   0   0   0   0   0   0   0  98   0   0   0   0   0   0   0   0   0   0  69   0   0   0 
  0   0   0   0   0   0   0  87   0   0   0   0   0  81   0   0   0   0   0   0   0   0   0  52   0   0  78  62  66  60   0   0   0   0   0   0   0   0   0   0   0   0   0  48   0   0   0   0   0  67   0   0   0   0   0   0   0   0   0  19  78  81   0 
  0  99  33   0   0   0   0  23   0  19   0   0   0   0   0   0   0   0   0   0   0  69   0   0  17  48   2   0   0  55   0   0   7   0   0   0   0   0   0  46  66  29   0   0  99   0   0   0   0   0   0  69   0  71  68   0   0   0   6   0  32   0 
  0   0  66   0   0  43   0   0   0   0   0   0   0   0   0  17  16  64   0   0   0   0   0   0   0   0   0  63   0  78   0   0  28   0   0   0   0  32   0   0  65   0   0   0   0   0   2  18   0   0   0  53   0   0   0   9   4  69  93  28   0 
  0   0   0  25  98   0   0  73  26   0   0   0  82   0   0  43  20   0  52   0   0   0   0   0   0   0   0   0  28   4   0   0   0   0  43   0  81  20   0   0   0   0   0  99   0  18  67  29  26   0   0   0   0   0   0  81   0   0   0   0 
  0   0   0   0   0   0  35   0   0   4  48   0   0  27   0   0   0  69  10   0   0  32   0   0   0   0   0   0   0  75   0  15   0   0  62   0   0   0   0   0   0   0   0   0   0  74   0   0  20  87   0   0   0   0   0   0   0   0  35 
 21   0  10   0   0   0   0  82  21   0  17   0   0   0   0   0   0  63  18  76   0   0  75   0   0  79   0   0  74   0   0   0   0   0   0  57   0   0  71   0  86   9   0   0   0   0   0   0  50  94   0  93  98   0  77   0  19  90 
  0   0   0  42   0  98   0   0   0   0  75   0   0   0   0   0  43  57  24  31  72  94  21   0   0   0   0   0  64  48   0  57   0  95   0   0   0  41   0   0   0   0   0   0  34   0   0   0   0   0   0   0   0   0   0   0   0 
  0   0   0   0  79   0   0   0   0   0   0   0   7   0   0   0   0   0   0   0   0   0   0   0   0   0   0  73  64   0  97   0   0   0   0   0   0   0   0   0   0   0   0  25  80   0  24   0   0   0   0   0   0   0   0  75 
  0  86   0   0   0   0   0   0   0   0   0  40  54   0   0  18   0 100   0  43  82   0   0   0  18  93   0   0   0   0   0   0   0  20   0  70   0   0   0   0   0   0   0  65   0   0   0  89   0  37  12  40   0   0   0 
 48   0  93   0  59   0  14   0   0   0   0   0   0   0   0   0   0   0   0   0   0   0   0   0   0   0   0  30   0   0   0   0  96  28   0  57   0  98   0   0   0  11   0   0   0   0   0   0   0   0   0   0   0   0 
  0   0  83   0  48  45   0   0   0  13  56   1   0   0   0  41   0   0   0   0   0   0   0   0  42   0   0   0  78  81  28  51   0   0   0   0   0  50  83   0   0   0   0   0   0   0  57  45   0  18   0   0   0 
 61   0  25   0  80   0  53  90  19   0   0  30   0   0   0  91  27   0  77   0   0   0   0   0   0   0   0   0   0   0   0  22   0   0   0   0   0   0   0  39   0   0  30  99   0   0   0   0   0   0   2   0 
 46   0   0   0   0   0   0   0   0  37  63  18   0   0   0  21  70  79   0   0   0   0   0   0   0   0  98  84   0   0  55   0   5   0   0   0   0  72  73   0   0   0   0   0  31  15   0   0   0   0   0 
  0   0  88   0  88   0   0  37   0   0   0   0  71   0   0   0   0  26   0   4   0   0   8   0  57   0   0   0  13   0   0   0  19   0   0   0   0   0   0   0   0  63   0   0   0   0   0   0   0  20 
 85   0   0  41   0   0   2  98   0  22   0  75   0   0  27   0   0   0   0   0   0   0   0   0  33  30   0   0   0   0   0  60   0  77   0  27  39   0   0   0  67   0   0  20   0   0   0   0  15 
  0   0  68   0   0   0   0  83   0   0   0   0   8   3   0   0  95  88  41  96   0   0  13   0   0   0   0  57  25   0   0   0   0   0  88   0   0   0   0   0   0   0   6   0   0   0   0   0 
  0   0   0   0   0   0   0   0   0   0   0  20   0   0   0   0   0   0   0  94   0   0   0 100   0   0   0   0  72   0   0   0   0   0  27   0  36   0   0  56   0   0   0   0   0   0  90 
 42   0   0  78   0   4   0   0  14   0   0   0   0   0  31   0  19   0  12   0   0   0  38   0   0   0   0   0   0   0  71  50   0   0   0  93   0  19   0   0   0  57   4   0   0   0 
  0   0   0  53   0   0   0   0   0   0   0   0   0   0   0  15   0   0   0   0   0   0   0   0   0  84   0   0  43   0  99   0   0   0  12   0   0   0   0   0   0   0   0  53   0 
  0   0   0  80   0   0   0   0   0   0  48   0   0  76   0   0  88  35   0  73   0   0   0   0  68  89   0  37   0   0  38  79   0   0   0   0   0  81   0   0   0  44  65   0 
 58   0   0   0   0   0   0   0   0   0   0   0   0  19   0   0   0   0   0   0   0   0   0   0   0   0   0  72   0   0   0   0   0   0   0   0   0   0   0   0   0   0   0 
  0   0   0   0   0   0   0   0   0   7   0  22   0   0   0   0   0   0   0   0   3   0   0  45  83   4   0   0   0   0   0   0   0   0   0   0   0   0   0   0   9   0 
 21   0   0   0   0   0   0   0   0   0   0   0   0  84  33   0   0   0  93   0   0   9   0   0   0   0   0   0  31   0   0   0   0   0   0   9   0   0   0   0  56 
  0   0   0   0   0  26   0  22  22   0  27   0   0   0   0   0  52   7   0  66   0   0  49   0   0   0   0   0   0   0   0   0  76   0   0   0  67   0   0   0 
  0   0   0   0   0   0   0   0   0   0   0   0   0   0   0  68   0   0   0   0   0  70   0   0   0   0  56   0   0   0   0  72   0   0   0   0   0  52   0 
  0   0   0  34  47   0  87   0   0   0   0   0   0  57   0  93   0   0   0   0   5   0   0   0   0   0   0   0   0   0   0   0   0   0   0   0   0  66 
  0  29   0   0   0   0   0   0   1   0   0   0   0   0   0   0   0  42   0   0   0   0   0   0   0   0   0   0   0   0   0   0  24   0   0   0  47 
  0   0   0   0  97   0   5   0   0  82  35   0  76   0   0  72   0  56   0   0   0   0   0   0  79   0   0  83   0   0   0   0   0   0   0   0 
  0   0  87   0   0   0   0   0  49   0  25   0  26   0  48   0   0   0   0  46   0   0   0   0   0   0   0   0  71   0   0   0   0   0   0 
  0  92   0   0   0   0   0   0   0   0   0   0   0   0   0   0   0  78   8  17   0   0   0   0  56   0   0   0   0   0   0   0   0   0 
  0  68 100   0   0   0   0  82  13   0   0   0   0   0   0   0  39   0   0   0   0   0   0   0   0  25   0   0  69  12   0   0   0 
  0   0 100   0   0   0   0   0   0   0   0   0  64  88  81   0  46   0  99   0   0  85   0   0   0   9   0   0   0   0   0   0 
  0   0   0   0   0   0   0 100   0  80   0  77   0  10   0   0   0  35   0   0   0   0   0   0   0   0  49   0  39   0   0 
  0   0   0   0  42   0   0   0   0   0   0  79  91   0  66   0   0   0   0  95   0   0   0   1   0   0  85   0   0   0 
  0  48   0   0  86   0   0   0   0   0   0   0   0   0   0  44   7  73   0   0  69  35  57   0   0   0   0   0   0 
 73   0   0   0   0  17   0   0   0   0   0   0   0   0   0   0   0   0   0   0   0   0   0   0   0  79   0   0 
  0   0   0   0  24  12   0   0   0   0   0   6   0   0   0 100   0   0   0  68   0  17  19   0   0  49   0 
 36   0   0   0   0   0  43   0   0   0  51  30  54   0   0  45   5   0  46   0  28   0   0  15   0  34 
  0   0   0  33   0  20   0   0   0   0  38   0   0   0   0   0   0  45   0   0  13   0   0  96   0 
  0   0   0   0   0   0   0   0   0   0  86   0  43   0  35   0   0   0   0   0   0  56   0   0 
  0   0   0  97  38   0   0   0   0   0  55   0   0   0   3   0   0   0   0   0   0   0  30 
  0   0  97   0   0   0  77   0   0  89   0   0   0   0   0   0   0   0   0   0   0   0 
 96   0   0  86   0  97  58   0   0   0   0  66   0   0   0   0   0  71   0   0   0 
  0  21  26   0   0  27   0   0   0   0   0   0   0   0   0  13   0   0   0   0 
 65   0   0   0   7   0   0  12   0   0   0   0   0   4   0   0   0   6   0 
 87   0  17   0  82  11   0   8   0   0   0   0   0   0   0  12   9   0 
  0   0   0   0   0  28  61   0   0   0  61  44   0   0   8  95   0 
  0   0   0   0   0  85   0  81   0   0  38   0   0  12   0   0 
  0   0   0  80   0   0   0   0   0  85   0  90   0   0  17 
 79   0   0   0   0   0   0   0   0   0   0  66   0   0 
 77   0   0   0   0   0   0   0  13   0   0   0   0 
  0   0   0  86   0   0  45   0   0   0   0   0 
  0   0   0  97  28  35   0  11   0  97   0 
  0   0  40   4   0   0   0  46   0   0 
  0   0   0   0   0   5  45  37   0 
  0   3   0   0   0   0   0  91 
  0  73   0  70   0  67   1 
 73   0   0  52  13   0 
 19  84  75   0   0 
  0  34   0   0 
  0   0   0 
  0   0 
  0 

0
1597
 49  23  11  44  37  40  44   6  38  43  17   1  25  35  36  46  26   9  35  22  35   4  46  41  32  31  22  17  46  46  48  49  46   6  29  18   1  42  45  50  40  34  17  10  43  21   3   1  43   1  27  32  36  17  35   2  25  39   7  38  45  42  27  16  12  29  20  41   3  22  35  14  20  33  48  30  13  34  44  39  30  48  24  17   5  31  27  26  48  39  15  21  19  39  15  46   8  32  39   5 

Comments

Density             : 25.00 %

